lattice_vector     14.98426360      0.00000000      0.00000000
lattice_vector      0.00000000     17.30233725      0.00000000
lattice_vector      0.00000000      0.00000000     40.00000000

atom 7.19970871873 9.29350788337 7.59618717784 Fe
atom 10.517260886 9.93331117777 7.86118060386 N
atom 7.84048834508 5.97682303759 7.8493164508 N
atom 3.88241478998 8.65090259564 7.83757612519 N
atom 6.55834964333 12.6087983472 7.84709020227 N
atom 8.78908506325 8.21811977628 7.77357478742 N
atom 8.85230163122 6.82947040223 7.82648510003 C
atom 10.1034734118 8.67740431954 7.84245778497 C
atom 10.2384591098 6.39070417615 7.88747383194 C
atom 11.0256308489 7.55709859244 7.8985929035 C
atom 10.824702262 5.12090218272 7.91077244619 C
atom 12.4242589177 7.48889241255 7.9308695383 C
atom 12.2219735203 5.05057876481 7.9330105893 C
atom 13.0104824903 6.22042341651 7.95182813092 C
atom 10.2092019602 4.22142951422 7.88934606092 H
atom 13.0266017573 8.39751349667 7.93360326777 H
atom 14.0975077334 6.12916098554 7.96446911613 H
atom 12.7125133864 4.07646459235 7.93342281835 H
atom 6.12520063335 7.70348594265 7.77019546175 N
atom 4.73581887803 7.64070224164 7.83167685765 C
atom 6.58426715559 6.39072269735 7.84144176472 C
atom 4.29654622936 6.25791191766 7.88828611896 C
atom 5.46293429552 5.46852133846 7.89910726375 C
atom 3.02352578014 5.67482213249 7.91915831745 C
atom 5.38980253415 4.07126595543 7.91413801325 C
atom 2.94921077852 4.28030312482 7.92913859965 C
atom 4.11850773181 3.48797931634 7.9156160052 C
atom 2.12842729046 6.29728428969 7.91142650922 H
atom 6.2952279171 3.46446850203 7.90206959778 H
atom 4.0243713394 2.40139752371 7.90704598027 H
atom 1.97526329688 3.78932827511 7.92773786757 H
atom 5.61064405959 10.3680805284 7.77098181909 N
atom 5.54638924593 11.7563928165 7.83197266771 C
atom 4.29645679841 9.90807365822 7.82320578885 C
atom 4.16017567458 12.1941853566 7.88709282435 C
atom 3.37326587814 11.0269109186 7.88617417271 C
atom 3.57269424773 13.4632687273 7.9275235508 C
atom 1.97503680904 11.0935438546 7.90891344664 C
atom 2.17553887919 13.5327465201 7.94089321303 C
atom 1.38800359529 12.3624144961 7.93724665287 C
atom 4.18835277353 14.3629588877 7.92503959297 H
atom 1.37254950402 10.1849047785 7.90635804989 H
atom 0.300874633425 12.4524529402 7.938390734 H
atom 1.68465081454 14.5066532551 7.95264147629 H
atom 8.27386490127 10.8806278163 7.78820706648 N
atom 9.66294820063 10.9439565698 7.8475400029 C
atom 7.81463274656 12.1939313515 7.84401092008 C
atom 10.1019731944 12.3272877129 7.89006944616 C
atom 8.93586082954 13.1165068387 7.89033932654 C
atom 11.3746708455 12.9116411732 7.90158645898 C
atom 9.00765588927 14.5144173431 7.88632128398 C
atom 11.4482164235 14.3066475531 7.89410759746 C
atom 10.2781384046 15.0985310862 7.88180528566 C
atom 12.2707372003 12.2905384723 7.89705141028 H
atom 8.10120549007 15.1197717302 7.87167260043 H
atom 10.3716466637 16.1849604758 7.86100862127 H
atom 12.4221310961 14.7975922397 7.88333354945 H
atom 14.4674698094 0.620918883827 4.60904320674 Au
atom 14.4674698094 3.50464151918 4.60904320674 Au
atom 14.4674698094 6.3883646837 4.60904320674 Au
atom 14.4674698094 9.27208731905 4.60904320674 Au
atom 14.4674698094 12.1558099544 4.60904320674 Au
atom 14.4674698094 15.0395331189 4.60904320674 Au
atom 11.9700925764 2.0627802015 4.60904320674 Au
atom 11.9700925764 4.94650283685 4.60904320674 Au
atom 11.9700925764 7.83022600138 4.60904320674 Au
atom 11.9700925764 10.7139486367 4.60904320674 Au
atom 11.9700925764 13.5976718012 4.60904320674 Au
atom 11.9700925764 16.4813944366 4.60904320674 Au
atom 9.47271481426 0.620918883827 4.60904320674 Au
atom 9.47271481426 3.50464151918 4.60904320674 Au
atom 9.47271481426 6.3883646837 4.60904320674 Au
atom 9.47271481426 9.27208731905 4.60904320674 Au
atom 9.47271481426 12.1558099544 4.60904320674 Au
atom 9.47271481426 15.0395331189 4.60904320674 Au
atom 6.9753375813 2.0627802015 4.60904320674 Au
atom 6.9753375813 4.94650283685 4.60904320674 Au
atom 6.9753375813 7.83022600138 4.60904320674 Au
atom 6.9753375813 10.7139486367 4.60904320674 Au
atom 6.9753375813 13.5976718012 4.60904320674 Au
atom 6.9753375813 16.4813944366 4.60904320674 Au
atom 4.47796034834 0.620918883827 4.60904320674 Au
atom 4.47796034834 3.50464151918 4.60904320674 Au
atom 4.47796034834 6.3883646837 4.60904320674 Au
atom 4.47796034834 9.27208731905 4.60904320674 Au
atom 4.47796034834 12.1558099544 4.60904320674 Au
atom 4.47796034834 15.0395331189 4.60904320674 Au
atom 1.98058311538 2.0627802015 4.60904320674 Au
atom 1.98058311538 4.94650283685 4.60904320674 Au
atom 1.98058311538 7.83022600138 4.60904320674 Au
atom 1.98058311538 10.7139486367 4.60904320674 Au
atom 1.98058311538 13.5976718012 4.60904320674 Au
atom 1.98058311538 16.4813944366 4.60904320674 Au
